c User generated cnf file
p cnf 14 15
1 -2 2 0 
12 10 -3 0 
5 -4 12 0 
4 -10 11 0 
14 5 -12 0 
10 4 -11 0 
1 -14 5 0 
11 4 -12 0 
14 8 -4 0 
14 13 -1 0 
4 -6 11 0 
10 -11 13 0 
5 3 -8 0 
13 -12 11 0 
8 -11 2 0 
